set I := 1 2 3 4 5 6 7 8 9 10 11 12 13 14 15 16 17 18 19 20 21 22 23 24 ;
set J := 1 2 3 4 5 6 7 8 9 10 11 12 13 14 15 16 17 18 19 20 21 22 23 24 ;

param s :=
      1 6
      2 6
      3 5
      4 5
      5 5
      6 4
      7 4
      8 4
      9 4
      10 2
      11 2
      12 2
      13 2
      14 3
      15 3
      16 7
      17 7
      18 5
      19 5
      20 8
      21 8
      22 4
      23 4
      24 5 ;

param B := 9 ;